NAME: a280.heu.tour
TYPE: TOUR
COMMENT: Heuristic tour (Lin-Kernighan), length 2682.28
DIMENSION: 280
TOUR_SECTION
1
5
6
7
8
9
10
11
12
13
15
14
24
23
25
22
26
27
28
29
30
31
32
33
34
35
36
37
38
39
40
41
42
43
60
61
121
120
119
157
158
159
160
175
161
162
163
174
173
107
106
105
104
103
102
92
91
90
89
81
82
83
84
85
86
116
113
87
88
112
109
108
110
111
114
115
117
118
62
63
59
44
45
46
47
48
49
50
51
52
53
54
55
56
57
58
64
65
66
67
68
69
70
71
72
73
74
75
76
77
78
79
80
93
94
95
96
97
98
99
100
101
169
170
171
172
168
167
166
165
164
188
189
190
191
192
194
195
196
201
200
202
203
204
205
206
208
253
254
255
252
209
210
207
212
211
214
213
216
215
218
217
220
219
221
222
223
224
225
226
227
228
229
230
251
250
247
245
246
231
232
233
234
235
236
237
238
239
240
241
242
243
244
248
249
256
257
258
259
260
261
262
263
264
265
267
268
269
270
134
135
136
137
138
266
140
139
149
148
141
142
147
146
143
144
145
199
198
197
193
186
187
185
184
183
182
181
176
180
179
150
178
177
151
152
156
153
155
154
122
123
124
125
126
127
128
129
21
130
131
20
19
132
133
18
17
16
271
272
273
274
275
276
277
4
278
279
3
280
2
-1
EOF
